 $contrl units=angs local=boys runtyp=makefp
 mult=1 icharg=0 icut=11 $end
 $system timlim=99999   mwords=500 $end
 $scf soscf=.f. dirscf=.t. diis=.t. CONV=1.0d-06  $end
 $basis gbasis=n31 ngauss=6 npfunc=0 ndfunc=1 nffunc=0
 diffs=.f. diffsp=.f. $end
 $DAMP IFTTYP(1)=2,0 IFTFIX(1)=1,1 thrsh=500.0 $end
 $MAKEFP  POL=.t. DISP=.t. CHTR=.f.  EXREP=.t. $end
 $data
 mol1_86
 C1
C 6 2.60 2.78 2.97
H 1 1.88 1.97 2.83
H 1 2.27 3.88 2.94
H 1 3.13 2.69 3.95
H 1 3.41 2.65 2.18
 $end