 $contrl units=angs local=boys runtyp=makefp
 mult=1 icharg=0 icut=11 $end
 $system timlim=99999   mwords=500 $end
 $scf soscf=.f. dirscf=.t. diis=.t. CONV=1.0d-06  $end
 $basis gbasis=n31 ngauss=6 npfunc=0 ndfunc=1 nffunc=0
 diffs=.f. diffsp=.f. $end
 $DAMP IFTTYP(1)=2,0 IFTFIX(1)=1,1 thrsh=500.0 $end
 $MAKEFP  POL=.t. DISP=.t. CHTR=.f.  EXREP=.t. $end
 $data
 mol1_79
 C1
C 6 2.62 2.78 2.94
H 1 1.88 1.94 2.73
H 1 2.23 3.81 2.87
H 1 3.09 2.69 3.96
H 1 3.45 2.68 2.22
 $end