$molecule
   0 1
   C                0.020680    -0.011600     0.013800
   H               -0.649249    -0.743985    -0.280493
   H               -0.572823     0.906472    -0.164518
   H                0.297346    -0.128678     1.042366
   H                0.916797    -0.020617    -0.621726
$end

$rem
   METHOD               wB97X
   BASIS                6-31G*
   JOBTYPE              sp
   EFP_COORD_XYZ        true
   EFP_FRAGMENTS_ONLY   true
   EFP_DISP_DAMP        1
   EFP_QM_DISP          true
   EFP_QM_EXREP         true
   EFP_DISP_DAMP        2
   SYM_IGNORE           true
$end

$efp_fragments
water
   A01O1                2.258080     1.455500    -2.356500
   A02H2                2.353369     2.209156    -1.771184
   A03H3                2.600316     1.776554    -3.192843
water
   A01O1               -1.476820    -2.654900    -0.149100
   A02H2               -1.749574    -2.209538    -0.953419
   A03H3               -0.571556    -2.913263    -0.331901
water
   A01O1               -0.917420    -1.769900     2.561600
   A02H2               -0.137925    -1.503337     2.070680
   A03H3               -1.639061    -1.377584     2.066632
water
   A01O1                1.529480    -1.662000    -2.558800
   A02H2                1.410704    -1.107382    -1.785520
   A03H3                2.243622    -1.233594    -3.034343
water
   A01O1                2.208980     1.687200     0.581500
   A02H2                3.086074     1.545618     0.220486
   A03H3                1.639874     1.194178    -0.012402
water
   A01O1               -2.642320     0.012000    -1.255400
   A02H2               -2.802251     0.404567    -0.395176
   A03H3               -2.028298     0.621420    -1.669230
water
   A01O1               -2.336020    -2.394300     2.444400
   A02H2               -2.018176    -3.253639     2.727567
   A03H3               -3.127736    -2.601705     1.944560
$end

