$molecule
   0  1
   C    5.48000    4.80000    4.66000
   C    4.14000    4.13000    4.56000
   O    3.12000    4.97000    4.19000
   H    5.41000    5.91000    4.65000
   H    5.95000    4.44000    5.62000
   H    6.19000    4.47000    3.86000
   H    3.85000    3.62000    5.52000
   H    4.21000    3.30000    3.82000
   H    3.13000    5.86000    4.60000
   O    0.35000    1.08000    2.37000
   H    0.35000    1.18000    3.37000
   H    1.16000    0.57000    2.09000
   O    7.64000    4.61000    1.37000
   H    7.69000    4.85000    0.40000
   H    8.44000    4.05000    1.62000
   O    7.48000    2.20000    1.70000
   H    7.66000    2.63000    0.81000
   H    7.69000    1.23000    1.66000
   O   -0.18000    2.53000    6.03000
   H   -0.53000    2.47000    5.09000
   H    0.79000    2.78000    6.01000
   O    7.94000    0.49000    4.77000
   H    8.61000    0.66000    5.50000
   H    7.46000    1.34000    4.55000
   O    3.75000    1.29000    1.40000
   H    4.48000    0.81000    0.92000
   H    3.78000    2.27000    1.18000
   O    1.56000    5.23000    6.44000
   H    1.25000    5.17000    7.39000
   H    0.80000    5.54000    5.86000
   O    5.10000    6.79000    0.64000
   H    4.79000    6.45000    1.53000
   H    4.33000    7.17000    0.13000
   O    6.17000    8.70000    7.09000
   H    6.12000    8.99000    8.05000
   H    6.86000    7.99000    6.99000
   O    2.36000    7.41000    6.91000
   H    1.57000    7.90000    6.53000
   H    2.05000    6.78000    7.62000

$rem
   JOBTYPE              aimd
   AIMD_METHOD          bomd
   METHOD               wb97
   BASIS                6-31g*
   TIME_STEP            20        (20 a.u. = 0.48 fs) 
   AIMD_STEPS           100
   AIMD_INIT_VELOC      thermal
   AIMD_TEMP            298
   FOCK_EXTRAP_ORDER    6         request Fock matrix extrapolation
   FOCK_EXTRAP_POINTS   12 
   SCF_CONVERGENCE      6
   MAX_SCF_CYCLES       100
$end