$molecule
   0  1
   C    2.73000    2.74000    2.71000
   H    2.07000    1.89000    2.41000
   H    2.27000    3.72000    2.42000
   H    2.82000    2.71000    3.81000
   H    3.76000    2.63000    2.30000
   O    3.74000    5.49000    5.01000
   H    2.88000    5.91000    4.71000
   H    3.62000    4.51000    5.10000
   O    1.37000    5.08000    1.13000
   H    1.60000    5.13000    0.15000
   H    0.93000    4.21000    1.33000
   O    4.90000    2.83000    5.48000
   H    4.63000    2.58000    4.55000
   H    5.33000    2.05000    5.93000
   O    5.54000    4.40000    3.59000
   H    6.02000    3.61000    3.99000
   H    4.66000    4.53000    4.04000
   O    1.14000    2.01000    4.96000
   H    1.08000    1.68000    4.01000
   H    1.67000    1.37000    5.51000
   O   -0.23000    2.02000    3.20000
   H   -0.09000    1.10000    3.55000
   H    0.50000    2.27000    2.56000
   O    4.32000    3.95000    1.65000
   H    5.23000    3.73000    2.00000
   H    4.34000    4.84000    1.20000

$rem
   JOBTYPE              aimd
   AIMD_METHOD          bomd
   METHOD               wb97
   BASIS                6-31g*
   TIME_STEP            20        (20 a.u. = 0.48 fs) 
   AIMD_STEPS           100
   AIMD_INIT_VELOC      thermal
   AIMD_TEMP            298
   FOCK_EXTRAP_ORDER    6         request Fock matrix extrapolation
   FOCK_EXTRAP_POINTS   12 
   SCF_CONVERGENCE      6
   MAX_SCF_CYCLES       100
$end